50
100
92
89
87
84
82
82
81
75
73
71
67
67
63
59
57
56
52
49
48
47
46
41
39
38
36
35
34
34
30
29
26
21
20
19
18
15
15
13
11
10
10
10
9
8
8
7
6
6
6
3
